<number of tasks>
45

<cycle time>
62

<task times>
1 9
2 9
3 10
4 10
5 17
6 17
7 13
8 13
9 20
10 20
11 10
12 11
13 6
14 22
15 11
16 19
17 12
18 3
19 7
20 4
21 55
22 14
23 27
24 29
25 26
26 6
27 5
28 24
29 4
30 5
31 7
32 4
33 15
34 3
35 7
36 9
37 4
38 7
39 5
40 4
41 21
42 12
43 6
44 5
45 5

<precedence relations>
1,3
1,7
2,4
2,8
3,5
4,6
5,9
6,10
7,9
7,14
8,10
8,14
9,41
10,41
11,13
12,13
12,37
13,14
13,15
14,17
14,25
14,29
14,30
14,31
14,32
15,16
15,18
15,23
15,24
16,19
17,26
17,27
18,19
19,20
19,33
20,21
21,22
22,28
23,33
24,33
25,26
26,38
27,28
27,33
28,38
29,41
30,41
31,41
32,41
33,34
33,35
33,36
34,38
35,40
36,38
37,43
38,40
39,41
40,41
41,42
42,44
42,45

<setup times forward>
1,2:4
1,4:2
1,6:2
1,7:1
1,8:4
1,10:1
1,16:4
1,18:1
1,19:1
1,20:1
1,21:3
1,22:1
1,23:1
1,24:2
1,37:4
1,43:2
2,1:4
2,3:4
2,4:6
2,7:3
2,9:3
2,11:4
2,12:4
2,13:4
2,15:4
2,18:3
2,19:3
2,20:3
2,21:7
2,22:5
2,23:3
2,24:6
2,39:4
2,43:6
3,2:4
3,4:2
3,5:4
3,6:2
3,7:1
3,8:4
3,10:1
3,14:1
3,16:4
3,17:1
3,18:1
3,19:1
3,20:1
3,21:3
3,22:1
3,23:1
3,24:2
3,25:1
3,26:5
3,27:5
3,28:5
3,29:1
3,30:3
3,31:1
3,32:1
3,33:5
3,34:5
3,35:2
3,36:5
3,37:4
3,38:2
3,40:2
3,43:2
4,1:2
4,3:2
4,5:6
4,7:3
4,8:6
4,9:3
4,11:2
4,12:2
4,13:2
4,14:3
4,15:2
4,16:6
4,17:1
4,18:3
4,19:3
4,20:3
4,21:1
4,22:1
4,23:3
4,25:1
4,26:3
4,27:3
4,28:3
4,29:3
4,30:1
4,31:1
4,32:3
4,33:3
4,34:3
4,35:4
4,36:3
4,37:6
4,38:4
4,39:2
4,40:4
5,4:6
5,6:6
5,7:3
5,9:3
5,10:3
5,11:4
5,12:4
5,13:4
5,14:3
5,15:4
5,17:5
5,18:3
5,19:3
5,20:3
5,21:7
5,22:5
5,23:3
5,24:6
5,25:5
5,26:9
5,27:9
5,28:9
5,29:3
5,30:7
5,31:5
5,32:3
5,33:9
5,34:9
5,35:2
5,36:9
5,38:2
5,39:4
5,40:2
5,43:6
6,1:2
6,3:2
6,5:6
6,7:3
6,8:6
6,9:3
6,10:3
6,11:2
6,12:2
6,13:2
6,14:3
6,15:2
6,16:6
6,17:1
6,18:3
6,19:3
6,20:3
6,21:1
6,22:1
6,23:3
6,25:1
6,26:3
6,27:3
6,28:3
6,29:3
6,30:1
6,31:1
6,32:3
6,33:3
6,34:3
6,35:4
6,36:3
6,37:6
6,38:4
6,39:2
6,40:4
7,2:3
7,3:1
7,4:3
7,5:3
7,6:3
7,8:3
7,11:1
7,12:1
7,13:1
7,15:1
7,16:3
7,21:4
7,22:2
7,24:3
7,37:3
7,39:1
7,43:3
8,1:4
8,3:4
8,4:6
8,6:6
8,7:3
8,9:3
8,10:3
8,11:4
8,12:4
8,13:4
8,14:3
8,15:4
8,18:3
8,19:3
8,20:3
8,21:7
8,22:5
8,23:3
8,24:6
8,39:4
8,43:6
9,2:3
9,4:3
9,6:3
9,8:3
9,11:1
9,12:1
9,13:1
9,15:1
9,16:3
9,17:2
9,21:4
9,22:2
9,24:3
9,25:2
9,26:6
9,27:6
9,28:6
9,30:4
9,31:2
9,33:6
9,34:6
9,35:1
9,36:6
9,37:3
9,38:1
9,39:1
9,40:1
9,41:1
9,43:3
10,1:1
10,3:1
10,5:3
10,11:1
10,12:1
10,13:1
10,15:1
10,16:3
10,17:2
10,21:4
10,22:2
10,24:3
10,25:2
10,26:6
10,27:6
10,28:6
10,30:4
10,31:2
10,33:6
10,34:6
10,35:1
10,36:6
10,37:3
10,38:1
10,39:1
10,40:1
10,41:1
10,43:3
11,2:4
11,4:2
11,5:4
11,6:2
11,7:1
11,8:4
11,9:1
11,10:1
11,37:4
11,43:2
12,2:4
12,4:2
12,5:4
12,6:2
12,7:1
12,8:4
12,9:1
12,10:1
12,37:4
13,2:4
13,4:2
13,5:4
13,6:2
13,7:1
13,8:4
13,9:1
13,10:1
13,14:1
13,37:4
13,43:2
14,3:1
14,4:3
14,5:3
14,6:3
14,15:1
14,16:3
14,17:2
14,21:4
14,22:2
14,24:3
14,25:2
14,30:4
14,31:2
14,37:3
14,39:1
14,43:3
15,2:4
15,4:2
15,5:4
15,6:2
15,7:1
15,8:4
15,9:1
15,10:1
15,14:1
15,16:4
15,17:1
15,18:1
15,23:1
15,24:2
15,25:1
15,26:5
15,27:5
15,29:1
15,30:3
15,31:1
15,32:1
15,37:4
15,43:2
16,1:4
16,3:4
16,4:6
16,6:6
16,7:3
16,9:3
16,10:3
16,14:3
16,17:5
16,18:3
16,19:3
16,23:3
16,24:6
16,25:5
16,26:9
16,27:9
16,29:3
16,30:7
16,31:5
16,32:3
16,39:4
16,43:6
17,3:1
17,4:1
17,5:5
17,6:1
17,9:2
17,10:2
17,15:1
17,16:5
17,18:2
17,19:2
17,20:2
17,21:2
17,23:2
17,24:1
17,26:4
17,27:4
17,29:2
17,30:2
17,32:2
17,37:5
17,39:1
17,43:1
18,1:1
18,2:3
18,3:1
18,4:3
18,5:3
18,6:3
18,8:3
18,16:3
18,17:2
18,24:3
18,25:2
18,26:6
18,27:6
18,30:4
18,31:2
18,37:3
18,39:1
18,43:3
19,1:1
19,2:3
19,3:1
19,4:3
19,5:3
19,6:3
19,8:3
19,17:2
19,24:3
19,25:2
19,26:6
19,27:6
19,30:4
19,31:2
19,33:6
19,37:3
19,39:1
19,43:3
20,1:1
20,2:3
20,3:1
20,4:3
20,5:3
20,6:3
20,8:3
20,17:2
20,21:4
20,24:3
20,25:2
20,26:6
20,27:6
20,30:4
20,31:2
20,33:6
20,34:6
20,35:1
20,36:6
20,37:3
20,39:1
20,43:3
21,1:3
21,2:7
21,3:3
21,4:1
21,5:7
21,6:1
21,7:4
21,8:7
21,9:4
21,10:4
21,14:4
21,17:2
21,22:2
21,23:4
21,24:1
21,25:2
21,26:2
21,27:2
21,29:4
21,31:2
21,32:4
21,33:2
21,34:2
21,35:5
21,36:2
21,37:7
21,39:3
21,43:1
22,1:1
22,2:5
22,3:1
22,4:1
22,5:5
22,6:1
22,7:2
22,8:5
22,9:2
22,10:2
22,14:2
22,23:2
22,24:1
22,26:4
22,27:4
22,28:4
22,29:2
22,30:2
22,32:2
22,33:4
22,34:4
22,35:3
22,36:4
22,37:5
22,39:1
22,43:1
23,1:1
23,2:3
23,3:1
23,4:3
23,5:3
23,6:3
23,8:3
23,16:3
23,17:2
23,21:4
23,22:2
23,24:3
23,25:2
23,26:6
23,27:6
23,28:6
23,30:4
23,31:2
23,33:6
23,37:3
23,39:1
23,43:3
24,1:2
24,2:6
24,3:2
24,5:6
24,7:3
24,8:6
24,9:3
24,10:3
24,14:3
24,16:6
24,17:1
24,18:3
24,19:3
24,20:3
24,21:1
24,22:1
24,23:3
24,25:1
24,26:3
24,27:3
24,28:3
24,29:3
24,30:1
24,31:1
24,32:3
24,33:3
24,37:6
24,39:2
25,3:1
25,4:1
25,5:5
25,6:1
25,9:2
25,10:2
25,15:1
25,16:5
25,18:2
25,19:2
25,20:2
25,21:2
25,23:2
25,24:1
25,26:4
25,27:4
25,28:4
25,29:2
25,30:2
25,32:2
25,33:4
25,34:4
25,35:3
25,36:4
25,37:5
25,39:1
25,43:1
26,3:5
26,4:3
26,5:9
26,6:3
26,9:6
26,10:6
26,15:5
26,16:9
26,18:6
26,19:6
26,20:6
26,21:2
26,22:4
26,23:6
26,24:3
26,29:6
26,30:2
26,31:4
26,32:6
26,35:7
26,37:9
26,38:7
26,39:5
26,43:3
27,3:5
27,4:3
27,5:9
27,6:3
27,9:6
27,10:6
27,15:5
27,16:9
27,18:6
27,19:6
27,20:6
27,21:2
27,22:4
27,23:6
27,24:3
27,25:4
27,29:6
27,30:2
27,31:4
27,32:6
27,37:9
27,39:5
27,43:3
28,3:5
28,4:3
28,5:9
28,6:3
28,9:6
28,10:6
28,23:6
28,24:3
28,25:4
28,29:6
28,30:2
28,31:4
28,32:6
28,35:7
28,37:9
28,38:7
28,39:5
28,43:3
29,3:1
29,4:3
29,5:3
29,6:3
29,15:1
29,16:3
29,17:2
29,21:4
29,22:2
29,24:3
29,25:2
29,26:6
29,27:6
29,28:6
29,30:4
29,31:2
29,33:6
29,34:6
29,35:1
29,36:6
29,37:3
29,38:1
29,39:1
29,40:1
29,41:1
29,43:3
30,3:3
30,4:1
30,5:7
30,6:1
30,9:4
30,10:4
30,15:3
30,16:7
30,17:2
30,18:4
30,19:4
30,20:4
30,22:2
30,23:4
30,24:1
30,25:2
30,26:2
30,27:2
30,28:2
30,29:4
30,31:2
30,32:4
30,33:2
30,34:2
30,35:5
30,36:2
30,37:7
30,38:5
30,39:3
30,40:5
30,41:5
30,43:1
31,3:1
31,4:1
31,5:5
31,6:1
31,9:2
31,10:2
31,15:1
31,16:5
31,18:2
31,19:2
31,20:2
31,21:2
31,23:2
31,24:1
31,26:4
31,27:4
31,28:4
31,29:2
31,30:2
31,32:2
31,33:4
31,34:4
31,35:3
31,36:4
31,37:5
31,38:3
31,39:1
31,40:3
31,41:3
31,43:1
32,3:1
32,4:3
32,5:3
32,6:3
32,15:1
32,16:3
32,17:2
32,21:4
32,22:2
32,24:3
32,25:2
32,26:6
32,27:6
32,28:6
32,30:4
32,31:2
32,33:6
32,34:6
32,35:1
32,36:6
32,37:3
32,38:1
32,39:1
32,40:1
32,41:1
32,43:3
33,3:5
33,4:3
33,5:9
33,6:3
33,9:6
33,10:6
33,20:6
33,21:2
33,22:4
33,25:4
33,29:6
33,30:2
33,31:4
33,32:6
33,35:7
33,37:9
33,39:5
33,43:3
34,3:5
34,4:3
34,5:9
34,6:3
34,9:6
34,10:6
34,20:6
34,21:2
34,22:4
34,25:4
34,29:6
34,30:2
34,31:4
34,32:6
34,35:7
34,37:9
34,38:7
34,39:5
34,43:3
35,3:2
35,4:4
35,5:2
35,6:4
35,9:1
35,10:1
35,20:1
35,21:5
35,22:3
35,25:3
35,26:7
35,28:7
35,29:1
35,30:5
35,31:3
35,32:1
35,34:7
35,36:7
35,37:2
35,39:2
35,43:4
36,3:5
36,4:3
36,5:9
36,6:3
36,9:6
36,10:6
36,20:6
36,21:2
36,22:4
36,25:4
36,29:6
36,30:2
36,31:4
36,32:6
36,35:7
36,37:9
36,38:7
36,39:5
36,43:3
37,1:4
37,3:4
37,4:6
37,6:6
37,7:3
37,9:3
37,10:3
37,11:4
37,13:4
37,14:3
37,15:4
37,17:5
37,18:3
37,19:3
37,20:3
37,21:7
37,22:5
37,23:3
37,24:6
37,25:5
37,26:9
37,27:9
37,28:9
37,29:3
37,30:7
37,31:5
37,32:3
37,33:9
37,34:9
37,35:2
37,36:9
37,38:2
37,39:4
37,40:2
37,41:2
37,42:2
37,43:6
37,44:2
37,45:2
38,3:2
38,4:4
38,5:2
38,6:4
38,9:1
38,10:1
38,29:1
38,30:5
38,31:3
38,32:1
38,37:2
38,39:2
38,43:4
39,2:4
39,4:2
39,5:4
39,6:2
39,7:1
39,8:4
39,9:1
39,10:1
39,14:1
39,16:4
39,17:1
39,18:1
39,19:1
39,20:1
39,21:3
39,22:1
39,23:1
39,24:2
39,25:1
39,26:5
39,27:5
39,28:5
39,29:1
39,30:3
39,31:1
39,32:1
39,33:5
39,34:5
39,35:2
39,36:5
39,37:4
39,38:2
39,40:2
39,41:2
39,43:2
40,3:2
40,4:4
40,5:2
40,6:4
40,9:1
40,10:1
40,29:1
40,30:5
40,31:3
40,32:1
40,37:2
40,39:2
40,43:4
41,37:2
41,43:4
42,37:2
42,43:4
43,1:2
43,2:6
43,3:2
43,5:6
43,7:3
43,8:6
43,9:3
43,10:3
43,11:2
43,13:2
43,14:3
43,15:2
43,16:6
43,17:1
43,18:3
43,19:3
43,20:3
43,21:1
43,22:1
43,23:3
43,25:1
43,26:3
43,27:3
43,28:3
43,29:3
43,30:1
43,31:1
43,32:3
43,33:3
43,34:3
43,35:4
43,36:3
43,38:4
43,39:2
43,40:4
43,41:4
43,42:4
43,44:4
43,45:4
44,37:2
44,43:4
45,37:2
45,43:4

<setup times backward>
1,4:2
1,6:2
1,21:3
1,22:1
1,24:2
1,43:2
2,1:4
2,3:4
2,7:3
2,9:3
2,11:4
2,12:4
2,13:4
2,15:4
2,18:3
2,19:3
2,20:3
2,21:7
2,22:5
2,23:3
2,24:6
2,39:4
2,43:6
3,4:2
3,6:2
3,17:1
3,21:3
3,22:1
3,24:2
3,25:1
3,26:5
3,27:5
3,28:5
3,30:3
3,31:1
3,33:5
3,34:5
3,36:5
3,43:2
4,21:1
4,26:3
4,27:3
4,28:3
4,30:1
4,33:3
4,34:3
4,36:3
5,1:4
5,3:4
5,4:6
5,6:6
5,7:3
5,10:3
5,11:4
5,12:4
5,13:4
5,14:3
5,15:4
5,17:5
5,18:3
5,19:3
5,20:3
5,21:7
5,22:5
5,23:3
5,24:6
5,25:5
5,26:9
5,27:9
5,28:9
5,29:3
5,30:7
5,31:5
5,32:3
5,33:9
5,34:9
5,35:2
5,36:9
5,38:2
5,39:4
5,40:2
5,43:6
6,21:1
6,26:3
6,27:3
6,28:3
6,30:1
6,33:3
6,34:3
6,36:3
7,1:1
7,3:1
7,4:3
7,6:3
7,11:1
7,12:1
7,13:1
7,15:1
7,21:4
7,22:2
7,24:3
7,39:1
7,43:3
8,1:4
8,3:4
8,4:6
8,6:6
8,7:3
8,9:3
8,11:4
8,12:4
8,13:4
8,15:4
8,18:3
8,19:3
8,20:3
8,21:7
8,22:5
8,23:3
8,24:6
8,39:4
8,43:6
9,1:1
9,3:1
9,4:3
9,6:3
9,11:1
9,12:1
9,13:1
9,15:1
9,17:2
9,21:4
9,22:2
9,24:3
9,25:2
9,26:6
9,27:6
9,28:6
9,30:4
9,31:2
9,33:6
9,34:6
9,36:6
9,39:1
9,43:3
10,1:1
10,3:1
10,4:3
10,6:3
10,11:1
10,12:1
10,13:1
10,15:1
10,17:2
10,21:4
10,22:2
10,24:3
10,25:2
10,26:6
10,27:6
10,28:6
10,30:4
10,31:2
10,33:6
10,34:6
10,36:6
10,39:1
10,43:3
11,4:2
11,6:2
11,43:2
12,4:2
12,6:2
13,4:2
13,6:2
13,43:2
14,1:1
14,3:1
14,4:3
14,6:3
14,11:1
14,12:1
14,13:1
14,15:1
14,21:4
14,22:2
14,24:3
14,39:1
14,43:3
15,4:2
15,6:2
15,17:1
15,25:1
15,26:5
15,27:5
15,30:3
15,31:1
15,43:2
16,1:4
16,3:4
16,4:6
16,6:6
16,7:3
16,9:3
16,10:3
16,11:4
16,12:4
16,13:4
16,14:3
16,15:4
16,17:5
16,18:3
16,23:3
16,24:6
16,25:5
16,26:9
16,27:9
16,29:3
16,30:7
16,31:5
16,32:3
16,39:4
16,43:6
17,4:1
17,6:1
17,21:2
17,24:1
17,30:2
17,43:1
18,1:1
18,3:1
18,4:3
18,6:3
18,11:1
18,12:1
18,13:1
18,15:1
18,17:2
18,24:3
18,25:2
18,26:6
18,27:6
18,30:4
18,31:2
18,39:1
18,43:3
19,1:1
19,3:1
19,4:3
19,6:3
19,11:1
19,12:1
19,13:1
19,15:1
19,17:2
19,24:3
19,25:2
19,26:6
19,27:6
19,30:4
19,31:2
19,39:1
19,43:3
20,1:1
20,3:1
20,4:3
20,6:3
20,11:1
20,12:1
20,13:1
20,15:1
20,17:2
20,24:3
20,25:2
20,26:6
20,27:6
20,30:4
20,31:2
20,33:6
20,34:6
20,36:6
20,39:1
20,43:3
21,26:2
21,27:2
21,33:2
21,34:2
21,36:2
22,4:1
22,6:1
22,21:2
22,24:1
22,26:4
22,27:4
22,30:2
22,33:4
22,34:4
22,36:4
22,43:1
23,1:1
23,3:1
23,4:3
23,6:3
23,11:1
23,12:1
23,13:1
23,15:1
23,17:2
23,21:4
23,22:2
23,24:3
23,25:2
23,26:6
23,27:6
23,28:6
23,30:4
23,31:2
23,39:1
23,43:3
24,21:1
24,26:3
24,27:3
24,28:3
24,30:1
25,4:1
25,6:1
25,21:2
25,24:1
25,27:4
25,28:4
25,30:2
25,33:4
25,34:4
25,36:4
25,43:1
29,1:1
29,3:1
29,4:3
29,6:3
29,11:1
29,12:1
29,13:1
29,15:1
29,17:2
29,21:4
29,22:2
29,24:3
29,25:2
29,26:6
29,27:6
29,28:6
29,30:4
29,31:2
29,33:6
29,34:6
29,36:6
29,39:1
29,43:3
30,26:2
30,27:2
30,28:2
30,33:2
30,34:2
30,36:2
31,4:1
31,6:1
31,21:2
31,24:1
31,26:4
31,27:4
31,28:4
31,30:2
31,33:4
31,34:4
31,36:4
31,43:1
32,1:1
32,3:1
32,4:3
32,6:3
32,11:1
32,12:1
32,13:1
32,15:1
32,17:2
32,21:4
32,22:2
32,24:3
32,25:2
32,26:6
32,27:6
32,28:6
32,30:4
32,31:2
32,33:6
32,34:6
32,36:6
32,39:1
32,43:3
35,1:2
35,3:2
35,4:4
35,6:4
35,7:1
35,9:1
35,10:1
35,11:2
35,12:2
35,13:2
35,14:1
35,15:2
35,17:3
35,18:1
35,19:1
35,20:1
35,21:5
35,22:3
35,23:1
35,24:4
35,25:3
35,26:7
35,27:7
35,28:7
35,29:1
35,30:5
35,31:3
35,32:1
35,33:7
35,34:7
35,36:7
35,39:2
35,43:4
37,1:4
37,3:4
37,4:6
37,6:6
37,7:3
37,9:3
37,10:3
37,11:4
37,12:4
37,13:4
37,14:3
37,15:4
37,17:5
37,18:3
37,19:3
37,20:3
37,21:7
37,22:5
37,23:3
37,24:6
37,25:5
37,26:9
37,27:9
37,28:9
37,29:3
37,30:7
37,31:5
37,32:3
37,33:9
37,34:9
37,35:2
37,36:9
37,38:2
37,39:4
37,40:2
37,41:2
37,42:2
37,44:2
37,45:2
38,1:2
38,3:2
38,4:4
38,6:4
38,7:1
38,9:1
38,10:1
38,11:2
38,12:2
38,13:2
38,14:1
38,15:2
38,17:3
38,18:1
38,19:1
38,20:1
38,21:5
38,22:3
38,23:1
38,24:4
38,25:3
38,26:7
38,27:7
38,28:7
38,29:1
38,30:5
38,31:3
38,32:1
38,33:7
38,34:7
38,36:7
38,39:2
38,43:4
39,4:2
39,6:2
39,17:1
39,21:3
39,22:1
39,24:2
39,25:1
39,26:5
39,27:5
39,28:5
39,30:3
39,31:1
39,33:5
39,34:5
39,36:5
39,43:2
40,1:2
40,3:2
40,4:4
40,6:4
40,7:1
40,9:1
40,10:1
40,11:2
40,12:2
40,13:2
40,14:1
40,15:2
40,17:3
40,18:1
40,19:1
40,20:1
40,21:5
40,22:3
40,23:1
40,24:4
40,25:3
40,26:7
40,27:7
40,28:7
40,29:1
40,30:5
40,31:3
40,32:1
40,33:7
40,34:7
40,36:7
40,39:2
40,43:4
41,1:2
41,3:2
41,4:4
41,6:4
41,7:1
41,9:1
41,10:1
41,11:2
41,12:2
41,13:2
41,14:1
41,15:2
41,17:3
41,18:1
41,19:1
41,20:1
41,21:5
41,22:3
41,23:1
41,24:4
41,25:3
41,26:7
41,27:7
41,28:7
41,29:1
41,30:5
41,31:3
41,32:1
41,33:7
41,34:7
41,36:7
41,39:2
41,43:4
42,1:2
42,3:2
42,4:4
42,6:4
42,7:1
42,9:1
42,10:1
42,11:2
42,12:2
42,13:2
42,14:1
42,15:2
42,17:3
42,18:1
42,19:1
42,20:1
42,21:5
42,22:3
42,23:1
42,24:4
42,25:3
42,26:7
42,27:7
42,28:7
42,29:1
42,30:5
42,31:3
42,32:1
42,33:7
42,34:7
42,36:7
42,39:2
42,43:4
43,21:1
43,26:3
43,27:3
43,28:3
43,30:1
43,33:3
43,34:3
43,36:3
44,1:2
44,3:2
44,4:4
44,6:4
44,7:1
44,9:1
44,10:1
44,11:2
44,12:2
44,13:2
44,14:1
44,15:2
44,17:3
44,18:1
44,19:1
44,20:1
44,21:5
44,22:3
44,23:1
44,24:4
44,25:3
44,26:7
44,27:7
44,28:7
44,29:1
44,30:5
44,31:3
44,32:1
44,33:7
44,34:7
44,36:7
44,39:2
44,43:4
45,1:2
45,3:2
45,4:4
45,6:4
45,7:1
45,9:1
45,10:1
45,11:2
45,12:2
45,13:2
45,14:1
45,15:2
45,17:3
45,18:1
45,19:1
45,20:1
45,21:5
45,22:3
45,23:1
45,24:4
45,25:3
45,26:7
45,27:7
45,28:7
45,29:1
45,30:5
45,31:3
45,32:1
45,33:7
45,34:7
45,36:7
45,39:2
45,43:4

<end>

<optimal SALBP-1 value>
9


<rand seed>
467321153

